wcsp 100 3 501 512409557603043100
3 3 3 3 3 3 3 3 3 3 3 3 3 3 3 3 3 3 3 3 3 3 3 3 3 3 3 3 3 3 3 3 3 3 3 3 3 3 3 3 3 3 3 3 3 3 3 3 3 3 3 3 3 3 3 3 3 3 3 3 3 3 3 3 3 3 3 3 3 3 3 3 3 3 3 3 3 3 3 3 3 3 3 3 3 3 3 3 3 3 3 3 3 3 3 3 3 3 3 3
2 10 30 0 9
0 0 3
0 1 3
0 2 1
1 0 1
1 1 3
1 2 0
2 0 0
2 1 0
2 2 0
2 46 50 0 9
0 0 1
0 1 2
0 2 1
1 0 1
1 1 0
1 2 0
2 0 0
2 1 3
2 2 0
2 40 95 0 9
0 0 0
0 1 3
0 2 0
1 0 0
1 1 2
1 2 2
2 0 0
2 1 2
2 2 3
2 17 22 0 9
0 0 0
0 1 0
0 2 1
1 0 1
1 1 0
1 2 0
2 0 3
2 1 3
2 2 2
2 17 63 0 9
0 0 3
0 1 1
0 2 3
1 0 0
1 1 0
1 2 2
2 0 0
2 1 0
2 2 3
2 24 81 0 9
0 0 0
0 1 0
0 2 2
1 0 3
1 1 0
1 2 0
2 0 3
2 1 1
2 2 3
2 0 92 0 9
0 0 2
0 1 0
0 2 0
1 0 1
1 1 3
1 2 0
2 0 0
2 1 3
2 2 3
2 16 20 0 9
0 0 0
0 1 0
0 2 0
1 0 3
1 1 3
1 2 2
2 0 1
2 1 0
2 2 1
2 2 30 0 9
0 0 0
0 1 1
0 2 0
1 0 1
1 1 3
1 2 2
2 0 0
2 1 0
2 2 2
2 16 73 0 9
0 0 1
0 1 1
0 2 0
1 0 2
1 1 3
1 2 0
2 0 0
2 1 1
2 2 0
2 44 82 0 9
0 0 3
0 1 0
0 2 3
1 0 0
1 1 0
1 2 3
2 0 1
2 1 0
2 2 3
2 31 93 0 9
0 0 0
0 1 0
0 2 2
1 0 3
1 1 0
1 2 1
2 0 3
2 1 1
2 2 0
2 18 54 0 9
0 0 2
0 1 2
0 2 1
1 0 3
1 1 0
1 2 0
2 0 0
2 1 1
2 2 0
2 20 76 0 9
0 0 0
0 1 2
0 2 0
1 0 0
1 1 3
1 2 0
2 0 1
2 1 1
2 2 2
2 5 60 0 9
0 0 0
0 1 0
0 2 2
1 0 0
1 1 3
1 2 2
2 0 1
2 1 3
2 2 0
2 37 64 0 9
0 0 1
0 1 0
0 2 0
1 0 0
1 1 1
1 2 1
2 0 1
2 1 2
2 2 0
2 11 76 0 9
0 0 0
0 1 1
0 2 2
1 0 1
1 1 1
1 2 0
2 0 0
2 1 1
2 2 0
2 71 78 0 9
0 0 0
0 1 0
0 2 1
1 0 3
1 1 0
1 2 0
2 0 1
2 1 2
2 2 1
2 44 72 0 9
0 0 1
0 1 0
0 2 0
1 0 2
1 1 0
1 2 0
2 0 2
2 1 3
2 2 1
2 78 98 0 9
0 0 0
0 1 1
0 2 0
1 0 2
1 1 3
1 2 1
2 0 0
2 1 0
2 2 1
2 8 43 0 9
0 0 3
0 1 0
0 2 1
1 0 0
1 1 3
1 2 0
2 0 1
2 1 0
2 2 3
2 20 37 0 9
0 0 0
0 1 3
0 2 0
1 0 3
1 1 0
1 2 0
2 0 2
2 1 2
2 2 2
2 17 88 0 9
0 0 1
0 1 3
0 2 0
1 0 1
1 1 0
1 2 2
2 0 2
2 1 0
2 2 0
2 9 54 0 9
0 0 0
0 1 2
0 2 0
1 0 1
1 1 1
1 2 0
2 0 0
2 1 1
2 2 3
2 30 87 0 9
0 0 2
0 1 2
0 2 0
1 0 0
1 1 1
1 2 1
2 0 0
2 1 0
2 2 1
2 68 89 0 9
0 0 2
0 1 1
0 2 1
1 0 3
1 1 0
1 2 0
2 0 1
2 1 0
2 2 0
2 56 65 0 9
0 0 0
0 1 2
0 2 1
1 0 1
1 1 0
1 2 3
2 0 0
2 1 0
2 2 2
2 22 56 0 9
0 0 2
0 1 0
0 2 0
1 0 2
1 1 3
1 2 0
2 0 1
2 1 0
2 2 2
2 22 62 0 9
0 0 0
0 1 1
0 2 1
1 0 1
1 1 0
1 2 2
2 0 3
2 1 0
2 2 0
2 26 37 0 9
0 0 3
0 1 2
0 2 3
1 0 0
1 1 2
1 2 2
2 0 0
2 1 0
2 2 0
2 6 23 0 9
0 0 2
0 1 1
0 2 2
1 0 0
1 1 3
1 2 3
2 0 0
2 1 0
2 2 0
2 78 90 0 9
0 0 0
0 1 3
0 2 0
1 0 2
1 1 3
1 2 3
2 0 0
2 1 0
2 2 2
2 15 40 0 9
0 0 0
0 1 1
0 2 1
1 0 0
1 1 0
1 2 2
2 0 3
2 1 0
2 2 3
2 52 99 0 9
0 0 0
0 1 1
0 2 3
1 0 1
1 1 0
1 2 2
2 0 0
2 1 1
2 2 0
2 52 70 0 9
0 0 0
0 1 3
0 2 2
1 0 2
1 1 0
1 2 3
2 0 0
2 1 0
2 2 1
2 2 21 0 9
0 0 0
0 1 0
0 2 0
1 0 0
1 1 2
1 2 2
2 0 2
2 1 3
2 2 3
2 65 80 0 9
0 0 2
0 1 2
0 2 0
1 0 0
1 1 0
1 2 3
2 0 3
2 1 3
2 2 0
2 16 18 0 9
0 0 0
0 1 1
0 2 1
1 0 3
1 1 2
1 2 0
2 0 0
2 1 0
2 2 3
2 28 53 0 9
0 0 1
0 1 0
0 2 2
1 0 0
1 1 2
1 2 0
2 0 0
2 1 1
2 2 3
2 64 73 0 9
0 0 1
0 1 3
0 2 2
1 0 2
1 1 1
1 2 0
2 0 0
2 1 0
2 2 0
2 70 77 0 9
0 0 1
0 1 0
0 2 1
1 0 2
1 1 0
1 2 2
2 0 3
2 1 0
2 2 0
2 0 16 0 9
0 0 0
0 1 2
0 2 3
1 0 3
1 1 1
1 2 0
2 0 1
2 1 0
2 2 0
2 31 99 0 9
0 0 1
0 1 0
0 2 0
1 0 2
1 1 3
1 2 3
2 0 0
2 1 0
2 2 1
2 1 78 0 9
0 0 0
0 1 3
0 2 0
1 0 2
1 1 0
1 2 2
2 0 3
2 1 0
2 2 2
2 7 52 0 9
0 0 0
0 1 2
0 2 0
1 0 3
1 1 0
1 2 2
2 0 3
2 1 2
2 2 0
2 30 59 0 9
0 0 1
0 1 0
0 2 3
1 0 0
1 1 0
1 2 2
2 0 0
2 1 1
2 2 3
2 43 51 0 9
0 0 0
0 1 0
0 2 1
1 0 0
1 1 1
1 2 2
2 0 0
2 1 2
2 2 1
2 19 49 0 9
0 0 0
0 1 1
0 2 0
1 0 1
1 1 2
1 2 2
2 0 0
2 1 1
2 2 0
2 48 92 0 9
0 0 0
0 1 1
0 2 0
1 0 0
1 1 0
1 2 3
2 0 1
2 1 2
2 2 2
2 54 97 0 9
0 0 1
0 1 0
0 2 1
1 0 0
1 1 0
1 2 2
2 0 0
2 1 2
2 2 2
2 18 21 0 9
0 0 0
0 1 3
0 2 0
1 0 1
1 1 2
1 2 2
2 0 0
2 1 3
2 2 0
2 30 43 0 9
0 0 0
0 1 1
0 2 1
1 0 0
1 1 1
1 2 1
2 0 0
2 1 1
2 2 0
2 93 94 0 9
0 0 1
0 1 0
0 2 0
1 0 0
1 1 1
1 2 0
2 0 3
2 1 2
2 2 3
2 3 36 0 9
0 0 1
0 1 2
0 2 0
1 0 2
1 1 3
1 2 0
2 0 3
2 1 0
2 2 0
2 7 65 0 9
0 0 2
0 1 3
0 2 1
1 0 0
1 1 0
1 2 0
2 0 0
2 1 1
2 2 1
2 64 80 0 9
0 0 3
0 1 2
0 2 0
1 0 0
1 1 0
1 2 0
2 0 1
2 1 1
2 2 3
2 5 17 0 9
0 0 2
0 1 0
0 2 3
1 0 2
1 1 2
1 2 0
2 0 0
2 1 2
2 2 0
2 63 88 0 9
0 0 2
0 1 1
0 2 0
1 0 2
1 1 0
1 2 0
2 0 3
2 1 0
2 2 3
2 51 93 0 9
0 0 0
0 1 2
0 2 0
1 0 0
1 1 3
1 2 1
2 0 0
2 1 1
2 2 2
2 31 43 0 9
0 0 2
0 1 0
0 2 0
1 0 0
1 1 1
1 2 2
2 0 1
2 1 1
2 2 0
2 37 74 0 9
0 0 3
0 1 0
0 2 0
1 0 0
1 1 3
1 2 1
2 0 3
2 1 2
2 2 0
2 18 28 0 9
0 0 0
0 1 3
0 2 1
1 0 0
1 1 0
1 2 2
2 0 1
2 1 3
2 2 0
2 12 18 0 9
0 0 0
0 1 3
0 2 0
1 0 0
1 1 0
1 2 3
2 0 1
2 1 3
2 2 2
2 93 95 0 9
0 0 0
0 1 3
0 2 0
1 0 2
1 1 1
1 2 0
2 0 0
2 1 1
2 2 1
2 7 51 0 9
0 0 2
0 1 0
0 2 0
1 0 1
1 1 0
1 2 3
2 0 0
2 1 2
2 2 2
2 39 42 0 9
0 0 0
0 1 1
0 2 2
1 0 1
1 1 0
1 2 3
2 0 3
2 1 0
2 2 0
2 36 88 0 9
0 0 0
0 1 0
0 2 0
1 0 3
1 1 3
1 2 3
2 0 0
2 1 1
2 2 3
2 21 33 0 9
0 0 0
0 1 0
0 2 3
1 0 0
1 1 1
1 2 3
2 0 3
2 1 1
2 2 0
2 32 43 0 9
0 0 2
0 1 0
0 2 0
1 0 2
1 1 2
1 2 0
2 0 1
2 1 2
2 2 0
2 88 93 0 9
0 0 0
0 1 1
0 2 0
1 0 2
1 1 0
1 2 2
2 0 0
2 1 2
2 2 1
2 53 94 0 9
0 0 0
0 1 2
0 2 2
1 0 1
1 1 0
1 2 0
2 0 0
2 1 1
2 2 2
2 18 64 0 9
0 0 0
0 1 0
0 2 3
1 0 1
1 1 0
1 2 3
2 0 1
2 1 3
2 2 0
2 3 9 0 9
0 0 2
0 1 1
0 2 0
1 0 2
1 1 0
1 2 0
2 0 1
2 1 1
2 2 0
2 14 54 0 9
0 0 2
0 1 3
0 2 0
1 0 0
1 1 3
1 2 0
2 0 1
2 1 0
2 2 3
2 61 95 0 9
0 0 1
0 1 0
0 2 1
1 0 0
1 1 2
1 2 1
2 0 3
2 1 0
2 2 0
2 9 93 0 9
0 0 3
0 1 1
0 2 0
1 0 0
1 1 1
1 2 2
2 0 1
2 1 0
2 2 0
2 9 45 0 9
0 0 0
0 1 2
0 2 0
1 0 1
1 1 1
1 2 1
2 0 0
2 1 0
2 2 2
2 22 33 0 9
0 0 0
0 1 0
0 2 1
1 0 0
1 1 1
1 2 3
2 0 1
2 1 1
2 2 0
2 8 67 0 9
0 0 0
0 1 0
0 2 3
1 0 0
1 1 2
1 2 2
2 0 2
2 1 1
2 2 0
2 7 21 0 9
0 0 3
0 1 0
0 2 1
1 0 0
1 1 3
1 2 3
2 0 0
2 1 3
2 2 0
2 3 75 0 9
0 0 0
0 1 1
0 2 2
1 0 3
1 1 2
1 2 0
2 0 3
2 1 0
2 2 0
2 58 70 0 9
0 0 0
0 1 2
0 2 0
1 0 1
1 1 1
1 2 3
2 0 0
2 1 0
2 2 2
2 34 77 0 9
0 0 2
0 1 0
0 2 0
1 0 1
1 1 3
1 2 0
2 0 0
2 1 3
2 2 2
2 25 61 0 9
0 0 1
0 1 3
0 2 0
1 0 0
1 1 2
1 2 0
2 0 0
2 1 3
2 2 1
2 81 97 0 9
0 0 3
0 1 2
0 2 0
1 0 1
1 1 1
1 2 0
2 0 0
2 1 0
2 2 1
2 1 36 0 9
0 0 0
0 1 0
0 2 0
1 0 2
1 1 0
1 2 3
2 0 3
2 1 3
2 2 3
2 36 64 0 9
0 0 3
0 1 0
0 2 0
1 0 3
1 1 1
1 2 1
2 0 1
2 1 0
2 2 0
2 52 83 0 9
0 0 2
0 1 0
0 2 0
1 0 0
1 1 0
1 2 3
2 0 2
2 1 1
2 2 3
2 9 10 0 9
0 0 0
0 1 0
0 2 0
1 0 2
1 1 3
1 2 0
2 0 1
2 1 1
2 2 3
2 86 88 0 9
0 0 2
0 1 2
0 2 0
1 0 1
1 1 0
1 2 1
2 0 1
2 1 0
2 2 0
2 42 96 0 9
0 0 3
0 1 1
0 2 0
1 0 0
1 1 1
1 2 3
2 0 3
2 1 0
2 2 0
2 65 86 0 9
0 0 3
0 1 3
0 2 0
1 0 0
1 1 3
1 2 3
2 0 0
2 1 0
2 2 1
2 12 51 0 9
0 0 1
0 1 1
0 2 0
1 0 3
1 1 0
1 2 3
2 0 3
2 1 0
2 2 0
2 37 95 0 9
0 0 0
0 1 0
0 2 2
1 0 1
1 1 0
1 2 1
2 0 3
2 1 0
2 2 1
2 54 94 0 9
0 0 1
0 1 1
0 2 3
1 0 0
1 1 2
1 2 0
2 0 0
2 1 0
2 2 3
2 13 43 0 9
0 0 2
0 1 3
0 2 3
1 0 0
1 1 3
1 2 1
2 0 0
2 1 0
2 2 0
2 8 65 0 9
0 0 3
0 1 1
0 2 2
1 0 2
1 1 0
1 2 0
2 0 3
2 1 0
2 2 0
2 49 62 0 9
0 0 2
0 1 1
0 2 3
1 0 0
1 1 0
1 2 0
2 0 0
2 1 2
2 2 3
2 34 81 0 9
0 0 0
0 1 3
0 2 2
1 0 0
1 1 1
1 2 2
2 0 0
2 1 1
2 2 0
2 29 51 0 9
0 0 3
0 1 0
0 2 0
1 0 1
1 1 0
1 2 3
2 0 0
2 1 1
2 2 3
2 47 71 0 9
0 0 0
0 1 1
0 2 0
1 0 3
1 1 3
1 2 3
2 0 0
2 1 0
2 2 1
2 73 80 0 9
0 0 0
0 1 1
0 2 2
1 0 0
1 1 0
1 2 0
2 0 3
2 1 2
2 2 3
2 62 91 0 9
0 0 1
0 1 2
0 2 0
1 0 2
1 1 1
1 2 0
2 0 3
2 1 0
2 2 0
2 8 94 0 9
0 0 2
0 1 1
0 2 0
1 0 1
1 1 0
1 2 0
2 0 1
2 1 1
2 2 0
2 36 47 0 9
0 0 1
0 1 3
0 2 0
1 0 1
1 1 2
1 2 0
2 0 0
2 1 2
2 2 0
2 26 85 0 9
0 0 0
0 1 0
0 2 3
1 0 1
1 1 2
1 2 0
2 0 3
2 1 0
2 2 2
2 38 51 0 9
0 0 0
0 1 0
0 2 3
1 0 0
1 1 1
1 2 1
2 0 2
2 1 2
2 2 0
2 53 90 0 9
0 0 3
0 1 1
0 2 0
1 0 1
1 1 3
1 2 1
2 0 0
2 1 0
2 2 0
2 47 63 0 9
0 0 1
0 1 2
0 2 0
1 0 1
1 1 2
1 2 2
2 0 0
2 1 0
2 2 0
2 74 97 0 9
0 0 3
0 1 3
0 2 3
1 0 0
1 1 0
1 2 1
2 0 0
2 1 0
2 2 3
2 42 87 0 9
0 0 2
0 1 0
0 2 2
1 0 0
1 1 1
1 2 1
2 0 0
2 1 3
2 2 0
2 26 30 0 9
0 0 2
0 1 0
0 2 3
1 0 0
1 1 0
1 2 1
2 0 1
2 1 0
2 2 2
2 29 38 0 9
0 0 1
0 1 3
0 2 0
1 0 2
1 1 0
1 2 0
2 0 0
2 1 1
2 2 1
2 3 93 0 9
0 0 3
0 1 3
0 2 0
1 0 0
1 1 0
1 2 1
2 0 0
2 1 3
2 2 1
2 22 72 0 9
0 0 0
0 1 0
0 2 0
1 0 1
1 1 0
1 2 2
2 0 3
2 1 1
2 2 3
2 25 81 0 9
0 0 2
0 1 1
0 2 2
1 0 3
1 1 0
1 2 0
2 0 0
2 1 1
2 2 0
2 11 37 0 9
0 0 3
0 1 0
0 2 0
1 0 3
1 1 3
1 2 2
2 0 0
2 1 2
2 2 0
2 79 85 0 9
0 0 0
0 1 3
0 2 3
1 0 0
1 1 1
1 2 0
2 0 2
2 1 1
2 2 0
2 7 56 0 9
0 0 1
0 1 2
0 2 0
1 0 0
1 1 0
1 2 0
2 0 1
2 1 1
2 2 2
2 72 89 0 9
0 0 3
0 1 3
0 2 0
1 0 0
1 1 0
1 2 2
2 0 0
2 1 1
2 2 1
2 13 26 0 9
0 0 3
0 1 0
0 2 0
1 0 2
1 1 0
1 2 3
2 0 0
2 1 3
2 2 1
2 23 97 0 9
0 0 0
0 1 0
0 2 0
1 0 1
1 1 3
1 2 2
2 0 3
2 1 2
2 2 0
2 20 51 0 9
0 0 3
0 1 0
0 2 0
1 0 0
1 1 0
1 2 2
2 0 2
2 1 2
2 2 1
2 39 63 0 9
0 0 0
0 1 2
0 2 0
1 0 0
1 1 3
1 2 1
2 0 0
2 1 1
2 2 3
2 3 15 0 9
0 0 0
0 1 2
0 2 0
1 0 0
1 1 3
1 2 3
2 0 0
2 1 1
2 2 3
2 35 98 0 9
0 0 0
0 1 2
0 2 0
1 0 0
1 1 2
1 2 2
2 0 3
2 1 0
2 2 2
2 15 81 0 9
0 0 0
0 1 3
0 2 2
1 0 3
1 1 0
1 2 0
2 0 2
2 1 1
2 2 0
2 28 96 0 9
0 0 0
0 1 0
0 2 1
1 0 0
1 1 2
1 2 3
2 0 1
2 1 0
2 2 1
2 4 39 0 9
0 0 0
0 1 0
0 2 1
1 0 2
1 1 0
1 2 3
2 0 3
2 1 3
2 2 0
2 8 20 0 9
0 0 3
0 1 0
0 2 0
1 0 3
1 1 2
1 2 3
2 0 3
2 1 0
2 2 0
2 16 93 0 9
0 0 1
0 1 0
0 2 2
1 0 0
1 1 3
1 2 3
2 0 1
2 1 0
2 2 0
2 27 66 0 9
0 0 0
0 1 0
0 2 1
1 0 0
1 1 3
1 2 1
2 0 3
2 1 2
2 2 0
2 57 99 0 9
0 0 0
0 1 2
0 2 0
1 0 1
1 1 0
1 2 1
2 0 2
2 1 0
2 2 2
2 81 94 0 9
0 0 0
0 1 0
0 2 3
1 0 2
1 1 0
1 2 2
2 0 3
2 1 1
2 2 0
2 22 95 0 9
0 0 3
0 1 0
0 2 3
1 0 0
1 1 2
1 2 0
2 0 3
2 1 0
2 2 2
2 1 50 0 9
0 0 0
0 1 0
0 2 2
1 0 3
1 1 3
1 2 1
2 0 0
2 1 0
2 2 3
2 4 80 0 9
0 0 2
0 1 0
0 2 0
1 0 3
1 1 0
1 2 3
2 0 0
2 1 2
2 2 2
2 30 37 0 9
0 0 0
0 1 3
0 2 3
1 0 0
1 1 0
1 2 3
2 0 3
2 1 0
2 2 1
2 63 71 0 9
0 0 3
0 1 0
0 2 3
1 0 2
1 1 1
1 2 0
2 0 1
2 1 0
2 2 0
2 20 30 0 9
0 0 0
0 1 3
0 2 3
1 0 0
1 1 1
1 2 1
2 0 0
2 1 0
2 2 1
2 49 87 0 9
0 0 1
0 1 1
0 2 3
1 0 0
1 1 0
1 2 3
2 0 0
2 1 2
2 2 0
2 29 87 0 9
0 0 0
0 1 0
0 2 2
1 0 1
1 1 0
1 2 1
2 0 0
2 1 3
2 2 1
2 17 65 0 9
0 0 0
0 1 2
0 2 2
1 0 0
1 1 3
1 2 1
2 0 3
2 1 0
2 2 0
2 65 68 0 9
0 0 2
0 1 0
0 2 3
1 0 0
1 1 2
1 2 0
2 0 2
2 1 2
2 2 0
2 65 93 0 9
0 0 0
0 1 0
0 2 0
1 0 0
1 1 1
1 2 2
2 0 3
2 1 2
2 2 3
2 36 72 0 9
0 0 1
0 1 2
0 2 0
1 0 1
1 1 1
1 2 0
2 0 3
2 1 0
2 2 0
2 56 75 0 9
0 0 0
0 1 1
0 2 1
1 0 0
1 1 3
1 2 0
2 0 3
2 1 0
2 2 1
2 13 70 0 9
0 0 0
0 1 2
0 2 2
1 0 0
1 1 0
1 2 3
2 0 0
2 1 2
2 2 2
2 16 80 0 9
0 0 2
0 1 0
0 2 1
1 0 2
1 1 0
1 2 2
2 0 0
2 1 3
2 2 0
2 16 49 0 9
0 0 1
0 1 0
0 2 0
1 0 3
1 1 3
1 2 3
2 0 0
2 1 2
2 2 0
2 66 67 0 9
0 0 0
0 1 0
0 2 2
1 0 0
1 1 1
1 2 2
2 0 3
2 1 2
2 2 0
2 39 62 0 9
0 0 2
0 1 1
0 2 2
1 0 0
1 1 0
1 2 2
2 0 0
2 1 3
2 2 0
2 41 77 0 9
0 0 1
0 1 1
0 2 0
1 0 2
1 1 3
1 2 0
2 0 3
2 1 0
2 2 0
2 61 93 0 9
0 0 0
0 1 0
0 2 0
1 0 3
1 1 3
1 2 0
2 0 1
2 1 2
2 2 1
2 5 38 0 9
0 0 0
0 1 0
0 2 1
1 0 2
1 1 0
1 2 0
2 0 1
2 1 2
2 2 2
2 78 80 0 9
0 0 1
0 1 0
0 2 1
1 0 0
1 1 0
1 2 0
2 0 2
2 1 2
2 2 3
2 79 91 0 9
0 0 1
0 1 2
0 2 2
1 0 1
1 1 0
1 2 0
2 0 2
2 1 0
2 2 0
2 42 80 0 9
0 0 3
0 1 3
0 2 3
1 0 0
1 1 0
1 2 2
2 0 0
2 1 0
2 2 2
2 12 17 0 9
0 0 2
0 1 0
0 2 0
1 0 0
1 1 2
1 2 0
2 0 1
2 1 2
2 2 2
2 32 47 0 9
0 0 2
0 1 2
0 2 0
1 0 1
1 1 3
1 2 0
2 0 3
2 1 0
2 2 0
2 37 71 0 9
0 0 0
0 1 0
0 2 2
1 0 1
1 1 2
1 2 0
2 0 1
2 1 0
2 2 2
2 1 63 0 9
0 0 3
0 1 0
0 2 1
1 0 0
1 1 3
1 2 0
2 0 1
2 1 0
2 2 3
2 60 71 0 9
0 0 0
0 1 0
0 2 0
1 0 1
1 1 1
1 2 3
2 0 2
2 1 1
2 2 0
2 4 33 0 9
0 0 0
0 1 0
0 2 0
1 0 0
1 1 2
1 2 1
2 0 2
2 1 2
2 2 1
2 56 89 0 9
0 0 0
0 1 0
0 2 0
1 0 3
1 1 3
1 2 2
2 0 2
2 1 1
2 2 0
2 76 77 0 9
0 0 0
0 1 0
0 2 1
1 0 0
1 1 1
1 2 3
2 0 1
2 1 2
2 2 0
2 37 61 0 9
0 0 0
0 1 3
0 2 0
1 0 3
1 1 2
1 2 0
2 0 1
2 1 2
2 2 0
2 35 59 0 9
0 0 2
0 1 0
0 2 3
1 0 0
1 1 2
1 2 3
2 0 0
2 1 1
2 2 0
2 22 78 0 9
0 0 1
0 1 0
0 2 1
1 0 0
1 1 0
1 2 0
2 0 2
2 1 3
2 2 2
2 21 60 0 9
0 0 2
0 1 0
0 2 1
1 0 0
1 1 0
1 2 3
2 0 0
2 1 1
2 2 2
2 8 97 0 9
0 0 0
0 1 0
0 2 0
1 0 1
1 1 3
1 2 3
2 0 1
2 1 0
2 2 2
2 10 39 0 9
0 0 0
0 1 3
0 2 1
1 0 1
1 1 0
1 2 2
2 0 0
2 1 0
2 2 2
2 6 64 0 9
0 0 0
0 1 2
0 2 2
1 0 0
1 1 3
1 2 0
2 0 0
2 1 1
2 2 1
2 73 75 0 9
0 0 3
0 1 0
0 2 2
1 0 0
1 1 2
1 2 1
2 0 2
2 1 0
2 2 0
2 12 93 0 9
0 0 2
0 1 1
0 2 3
1 0 0
1 1 0
1 2 0
2 0 1
2 1 0
2 2 1
2 34 39 0 9
0 0 1
0 1 2
0 2 0
1 0 3
1 1 0
1 2 0
2 0 3
2 1 0
2 2 1
2 29 89 0 9
0 0 0
0 1 0
0 2 0
1 0 2
1 1 0
1 2 1
2 0 3
2 1 1
2 2 3
2 4 32 0 9
0 0 3
0 1 0
0 2 1
1 0 1
1 1 0
1 2 2
2 0 2
2 1 0
2 2 0
2 78 83 0 9
0 0 2
0 1 3
0 2 2
1 0 0
1 1 0
1 2 0
2 0 1
2 1 1
2 2 0
2 14 62 0 9
0 0 2
0 1 3
0 2 0
1 0 2
1 1 1
1 2 1
2 0 0
2 1 0
2 2 0
2 79 98 0 9
0 0 1
0 1 1
0 2 0
1 0 3
1 1 2
1 2 0
2 0 0
2 1 1
2 2 0
2 45 60 0 9
0 0 0
0 1 2
0 2 2
1 0 0
1 1 0
1 2 3
2 0 0
2 1 3
2 2 2
2 3 24 0 9
0 0 1
0 1 0
0 2 0
1 0 3
1 1 2
1 2 0
2 0 3
2 1 3
2 2 0
2 45 95 0 9
0 0 0
0 1 3
0 2 0
1 0 0
1 1 3
1 2 3
2 0 3
2 1 0
2 2 2
2 53 62 0 9
0 0 0
0 1 0
0 2 0
1 0 2
1 1 2
1 2 0
2 0 1
2 1 2
2 2 1
2 14 71 0 9
0 0 1
0 1 0
0 2 0
1 0 2
1 1 3
1 2 2
2 0 3
2 1 0
2 2 0
2 11 12 0 9
0 0 0
0 1 1
0 2 1
1 0 0
1 1 1
1 2 0
2 0 3
2 1 0
2 2 3
2 77 79 0 9
0 0 2
0 1 3
0 2 2
1 0 0
1 1 0
1 2 1
2 0 0
2 1 0
2 2 1
2 3 34 0 9
0 0 1
0 1 1
0 2 0
1 0 1
1 1 0
1 2 1
2 0 0
2 1 0
2 2 3
2 39 95 0 9
0 0 1
0 1 3
0 2 0
1 0 3
1 1 0
1 2 3
2 0 1
2 1 0
2 2 0
2 10 98 0 9
0 0 3
0 1 2
0 2 3
1 0 0
1 1 0
1 2 0
2 0 0
2 1 2
2 2 1
2 58 74 0 9
0 0 0
0 1 3
0 2 1
1 0 1
1 1 3
1 2 0
2 0 0
2 1 0
2 2 2
2 13 88 0 9
0 0 0
0 1 2
0 2 1
1 0 0
1 1 3
1 2 2
2 0 0
2 1 1
2 2 0
2 11 14 0 9
0 0 2
0 1 0
0 2 0
1 0 0
1 1 1
1 2 3
2 0 3
2 1 3
2 2 0
2 29 74 0 9
0 0 0
0 1 3
0 2 2
1 0 0
1 1 2
1 2 1
2 0 0
2 1 0
2 2 3
2 41 88 0 9
0 0 0
0 1 0
0 2 1
1 0 2
1 1 2
1 2 0
2 0 0
2 1 1
2 2 3
2 31 97 0 9
0 0 0
0 1 3
0 2 2
1 0 3
1 1 1
1 2 1
2 0 0
2 1 0
2 2 0
2 5 39 0 9
0 0 0
0 1 0
0 2 1
1 0 2
1 1 0
1 2 1
2 0 1
2 1 0
2 2 3
2 29 94 0 9
0 0 1
0 1 0
0 2 3
1 0 3
1 1 3
1 2 2
2 0 0
2 1 0
2 2 0
2 85 87 0 9
0 0 3
0 1 0
0 2 0
1 0 1
1 1 2
1 2 2
2 0 0
2 1 0
2 2 1
2 3 20 0 9
0 0 0
0 1 3
0 2 1
1 0 0
1 1 0
1 2 2
2 0 2
2 1 1
2 2 0
2 55 84 0 9
0 0 0
0 1 2
0 2 2
1 0 0
1 1 1
1 2 2
2 0 0
2 1 0
2 2 3
2 28 40 0 9
0 0 2
0 1 2
0 2 0
1 0 3
1 1 0
1 2 3
2 0 0
2 1 0
2 2 3
2 1 44 0 9
0 0 3
0 1 0
0 2 0
1 0 0
1 1 0
1 2 2
2 0 3
2 1 3
2 2 2
2 20 66 0 9
0 0 0
0 1 3
0 2 0
1 0 0
1 1 1
1 2 1
2 0 0
2 1 3
2 2 1
2 23 46 0 9
0 0 0
0 1 0
0 2 2
1 0 0
1 1 1
1 2 2
2 0 0
2 1 1
2 2 1
2 5 18 0 9
0 0 2
0 1 0
0 2 3
1 0 0
1 1 2
1 2 3
2 0 2
2 1 0
2 2 0
2 55 94 0 9
0 0 2
0 1 2
0 2 0
1 0 0
1 1 0
1 2 3
2 0 2
2 1 0
2 2 2
2 7 77 0 9
0 0 0
0 1 0
0 2 1
1 0 2
1 1 0
1 2 3
2 0 2
2 1 0
2 2 2
2 4 17 0 9
0 0 0
0 1 2
0 2 0
1 0 1
1 1 0
1 2 3
2 0 0
2 1 1
2 2 1
2 33 41 0 9
0 0 3
0 1 1
0 2 1
1 0 0
1 1 0
1 2 1
2 0 0
2 1 0
2 2 3
2 61 97 0 9
0 0 0
0 1 1
0 2 2
1 0 2
1 1 1
1 2 0
2 0 0
2 1 2
2 2 0
2 40 97 0 9
0 0 0
0 1 3
0 2 0
1 0 1
1 1 0
1 2 0
2 0 2
2 1 3
2 2 2
2 49 71 0 9
0 0 0
0 1 3
0 2 1
1 0 0
1 1 3
1 2 0
2 0 3
2 1 1
2 2 0
2 13 65 0 9
0 0 2
0 1 0
0 2 3
1 0 2
1 1 0
1 2 0
2 0 0
2 1 2
2 2 2
2 73 89 0 9
0 0 0
0 1 0
0 2 3
1 0 3
1 1 3
1 2 2
2 0 1
2 1 0
2 2 0
2 46 84 0 9
0 0 2
0 1 3
0 2 2
1 0 1
1 1 0
1 2 3
2 0 0
2 1 0
2 2 0
2 56 91 0 9
0 0 2
0 1 1
0 2 0
1 0 2
1 1 2
1 2 0
2 0 0
2 1 1
2 2 0
2 55 95 0 9
0 0 1
0 1 1
0 2 0
1 0 3
1 1 1
1 2 0
2 0 0
2 1 2
2 2 0
2 38 69 0 9
0 0 0
0 1 3
0 2 0
1 0 0
1 1 0
1 2 2
2 0 3
2 1 3
2 2 1
2 75 80 0 9
0 0 2
0 1 1
0 2 0
1 0 0
1 1 0
1 2 2
2 0 3
2 1 1
2 2 0
2 51 59 0 9
0 0 0
0 1 2
0 2 2
1 0 0
1 1 0
1 2 1
2 0 1
2 1 0
2 2 2
2 3 89 0 9
0 0 1
0 1 0
0 2 0
1 0 2
1 1 0
1 2 0
2 0 2
2 1 3
2 2 3
2 24 26 0 9
0 0 0
0 1 1
0 2 0
1 0 0
1 1 0
1 2 1
2 0 1
2 1 1
2 2 2
2 65 77 0 9
0 0 0
0 1 0
0 2 2
1 0 3
1 1 0
1 2 1
2 0 1
2 1 0
2 2 2
2 4 93 0 9
0 0 3
0 1 0
0 2 1
1 0 0
1 1 2
1 2 3
2 0 0
2 1 1
2 2 0
2 72 74 0 9
0 0 3
0 1 0
0 2 1
1 0 0
1 1 0
1 2 1
2 0 3
2 1 3
2 2 0
2 14 49 0 9
0 0 0
0 1 1
0 2 2
1 0 0
1 1 1
1 2 0
2 0 1
2 1 0
2 2 1
2 18 48 0 9
0 0 2
0 1 0
0 2 0
1 0 1
1 1 0
1 2 2
2 0 1
2 1 3
2 2 0
2 7 24 0 9
0 0 3
0 1 2
0 2 0
1 0 2
1 1 0
1 2 0
2 0 1
2 1 1
2 2 0
2 25 30 0 9
0 0 0
0 1 0
0 2 1
1 0 3
1 1 0
1 2 0
2 0 2
2 1 2
2 2 2
2 35 96 0 9
0 0 1
0 1 1
0 2 0
1 0 1
1 1 0
1 2 3
2 0 0
2 1 0
2 2 2
2 5 51 0 9
0 0 0
0 1 0
0 2 0
1 0 3
1 1 1
1 2 0
2 0 2
2 1 2
2 2 1
2 8 88 0 9
0 0 3
0 1 0
0 2 0
1 0 2
1 1 0
1 2 1
2 0 2
2 1 1
2 2 0
2 22 93 0 9
0 0 0
0 1 0
0 2 0
1 0 3
1 1 0
1 2 2
2 0 3
2 1 2
2 2 1
2 22 98 0 9
0 0 0
0 1 0
0 2 2
1 0 0
1 1 2
1 2 3
2 0 0
2 1 1
2 2 1
2 70 96 0 9
0 0 1
0 1 0
0 2 0
1 0 0
1 1 0
1 2 1
2 0 1
2 1 3
2 2 1
2 40 80 0 9
0 0 2
0 1 3
0 2 1
1 0 0
1 1 3
1 2 0
2 0 3
2 1 0
2 2 0
2 5 6 0 9
0 0 0
0 1 0
0 2 3
1 0 2
1 1 2
1 2 3
2 0 0
2 1 0
2 2 1
2 41 71 0 9
0 0 1
0 1 0
0 2 0
1 0 0
1 1 0
1 2 2
2 0 3
2 1 3
2 2 2
2 15 77 0 9
0 0 0
0 1 3
0 2 0
1 0 3
1 1 0
1 2 1
2 0 3
2 1 0
2 2 2
2 35 76 0 9
0 0 2
0 1 2
0 2 0
1 0 0
1 1 2
1 2 2
2 0 0
2 1 3
2 2 0
2 18 52 0 9
0 0 0
0 1 0
0 2 0
1 0 2
1 1 2
1 2 2
2 0 3
2 1 1
2 2 0
2 83 91 0 9
0 0 2
0 1 2
0 2 0
1 0 1
1 1 2
1 2 0
2 0 3
2 1 0
2 2 0
2 32 70 0 9
0 0 0
0 1 1
0 2 0
1 0 0
1 1 1
1 2 0
2 0 2
2 1 1
2 2 2
2 16 60 0 9
0 0 1
0 1 3
0 2 0
1 0 2
1 1 0
1 2 2
2 0 2
2 1 0
2 2 0
2 19 98 0 9
0 0 3
0 1 0
0 2 0
1 0 3
1 1 0
1 2 2
2 0 3
2 1 0
2 2 1
2 2 25 0 9
0 0 1
0 1 1
0 2 0
1 0 3
1 1 0
1 2 3
2 0 0
2 1 0
2 2 3
2 45 53 0 9
0 0 2
0 1 1
0 2 2
1 0 0
1 1 0
1 2 1
2 0 0
2 1 0
2 2 3
2 32 81 0 9
0 0 0
0 1 0
0 2 1
1 0 0
1 1 2
1 2 2
2 0 1
2 1 0
2 2 3
2 41 48 0 9
0 0 0
0 1 3
0 2 0
1 0 3
1 1 2
1 2 2
2 0 0
2 1 1
2 2 0
2 36 96 0 9
0 0 0
0 1 0
0 2 3
1 0 1
1 1 3
1 2 3
2 0 0
2 1 2
2 2 0
2 32 94 0 9
0 0 0
0 1 3
0 2 0
1 0 2
1 1 0
1 2 3
2 0 2
2 1 0
2 2 3
2 93 98 0 9
0 0 2
0 1 3
0 2 0
1 0 1
1 1 3
1 2 0
2 0 2
2 1 0
2 2 0
2 28 36 0 9
0 0 3
0 1 3
0 2 0
1 0 0
1 1 3
1 2 1
2 0 1
2 1 0
2 2 0
2 40 54 0 9
0 0 3
0 1 3
0 2 3
1 0 0
1 1 0
1 2 3
2 0 0
2 1 1
2 2 0
2 14 41 0 9
0 0 1
0 1 0
0 2 0
1 0 3
1 1 2
1 2 0
2 0 3
2 1 1
2 2 0
2 26 35 0 9
0 0 0
0 1 0
0 2 1
1 0 0
1 1 3
1 2 0
2 0 3
2 1 3
2 2 2
2 73 77 0 9
0 0 2
0 1 2
0 2 0
1 0 0
1 1 0
1 2 3
2 0 0
2 1 2
2 2 3
2 91 92 0 9
0 0 0
0 1 0
0 2 1
1 0 2
1 1 3
1 2 0
2 0 1
2 1 1
2 2 0
2 2 91 0 9
0 0 1
0 1 2
0 2 0
1 0 2
1 1 0
1 2 0
2 0 0
2 1 3
2 2 3
2 5 92 0 9
0 0 3
0 1 2
0 2 0
1 0 0
1 1 2
1 2 1
2 0 1
2 1 0
2 2 0
2 38 82 0 9
0 0 3
0 1 2
0 2 2
1 0 3
1 1 0
1 2 1
2 0 0
2 1 0
2 2 0
2 40 64 0 9
0 0 0
0 1 1
0 2 0
1 0 0
1 1 2
1 2 2
2 0 2
2 1 0
2 2 1
2 79 89 0 9
0 0 0
0 1 1
0 2 3
1 0 1
1 1 3
1 2 0
2 0 1
2 1 0
2 2 0
2 8 18 0 9
0 0 1
0 1 0
0 2 2
1 0 3
1 1 0
1 2 0
2 0 0
2 1 1
2 2 2
2 48 55 0 9
0 0 0
0 1 2
0 2 0
1 0 1
1 1 1
1 2 3
2 0 0
2 1 0
2 2 1
2 27 70 0 9
0 0 3
0 1 2
0 2 0
1 0 0
1 1 0
1 2 3
2 0 3
2 1 0
2 2 1
2 32 82 0 9
0 0 0
0 1 0
0 2 1
1 0 3
1 1 0
1 2 2
2 0 1
2 1 0
2 2 1
2 1 89 0 9
0 0 1
0 1 0
0 2 1
1 0 1
1 1 1
1 2 0
2 0 0
2 1 3
2 2 0
2 45 70 0 9
0 0 0
0 1 0
0 2 0
1 0 2
1 1 3
1 2 3
2 0 0
2 1 2
2 2 3
2 56 84 0 9
0 0 0
0 1 0
0 2 3
1 0 2
1 1 3
1 2 2
2 0 2
2 1 0
2 2 0
2 46 81 0 9
0 0 0
0 1 0
0 2 2
1 0 3
1 1 3
1 2 2
2 0 1
2 1 0
2 2 0
2 51 60 0 9
0 0 2
0 1 2
0 2 0
1 0 2
1 1 0
1 2 1
2 0 2
2 1 0
2 2 0
2 29 43 0 9
0 0 0
0 1 2
0 2 1
1 0 0
1 1 0
1 2 1
2 0 1
2 1 0
2 2 3
2 45 61 0 9
0 0 2
0 1 3
0 2 0
1 0 0
1 1 2
1 2 0
2 0 2
2 1 0
2 2 3
2 46 55 0 9
0 0 1
0 1 0
0 2 3
1 0 1
1 1 0
1 2 1
2 0 0
2 1 3
2 2 0
2 57 76 0 9
0 0 3
0 1 2
0 2 3
1 0 0
1 1 2
1 2 0
2 0 0
2 1 0
2 2 2
2 16 34 0 9
0 0 2
0 1 1
0 2 0
1 0 0
1 1 3
1 2 3
2 0 0
2 1 0
2 2 2
2 21 59 0 9
0 0 1
0 1 0
0 2 0
1 0 2
1 1 3
1 2 0
2 0 0
2 1 3
2 2 1
2 11 31 0 9
0 0 2
0 1 2
0 2 3
1 0 0
1 1 0
1 2 0
2 0 2
2 1 0
2 2 3
2 51 81 0 9
0 0 3
0 1 1
0 2 0
1 0 3
1 1 0
1 2 0
2 0 1
2 1 2
2 2 0
2 32 65 0 9
0 0 0
0 1 3
0 2 0
1 0 0
1 1 3
1 2 1
2 0 0
2 1 3
2 2 3
2 88 97 0 9
0 0 3
0 1 0
0 2 0
1 0 0
1 1 2
1 2 3
2 0 3
2 1 1
2 2 0
2 30 76 0 9
0 0 1
0 1 2
0 2 0
1 0 3
1 1 0
1 2 0
2 0 2
2 1 0
2 2 2
2 24 67 0 9
0 0 2
0 1 3
0 2 0
1 0 2
1 1 0
1 2 3
2 0 3
2 1 0
2 2 0
2 26 98 0 9
0 0 0
0 1 1
0 2 3
1 0 0
1 1 1
1 2 3
2 0 0
2 1 2
2 2 0
2 21 39 0 9
0 0 2
0 1 1
0 2 0
1 0 0
1 1 0
1 2 2
2 0 2
2 1 1
2 2 0
2 5 69 0 9
0 0 1
0 1 3
0 2 0
1 0 2
1 1 0
1 2 3
2 0 0
2 1 0
2 2 2
2 2 76 0 9
0 0 0
0 1 2
0 2 0
1 0 2
1 1 0
1 2 2
2 0 2
2 1 0
2 2 2
2 30 41 0 9
0 0 0
0 1 0
0 2 2
1 0 3
1 1 2
1 2 0
2 0 0
2 1 1
2 2 1
2 16 94 0 9
0 0 1
0 1 1
0 2 3
1 0 0
1 1 0
1 2 1
2 0 0
2 1 2
2 2 0
2 15 98 0 9
0 0 2
0 1 2
0 2 1
1 0 0
1 1 0
1 2 1
2 0 0
2 1 0
2 2 2
2 71 74 0 9
0 0 0
0 1 2
0 2 0
1 0 0
1 1 2
1 2 0
2 0 2
2 1 1
2 2 3
2 57 85 0 9
0 0 0
0 1 3
0 2 3
1 0 0
1 1 1
1 2 3
2 0 0
2 1 2
2 2 0
2 29 69 0 9
0 0 0
0 1 0
0 2 1
1 0 2
1 1 2
1 2 3
2 0 1
2 1 0
2 2 0
2 38 73 0 9
0 0 0
0 1 1
0 2 2
1 0 0
1 1 0
1 2 0
2 0 3
2 1 2
2 2 2
2 49 74 0 9
0 0 0
0 1 1
0 2 0
1 0 1
1 1 0
1 2 2
2 0 3
2 1 0
2 2 1
2 3 77 0 9
0 0 0
0 1 2
0 2 1
1 0 0
1 1 2
1 2 0
2 0 2
2 1 1
2 2 0
2 41 99 0 9
0 0 0
0 1 0
0 2 0
1 0 0
1 1 2
1 2 3
2 0 1
2 1 1
2 2 3
2 11 96 0 9
0 0 2
0 1 1
0 2 2
1 0 0
1 1 0
1 2 0
2 0 1
2 1 2
2 2 0
2 9 55 0 9
0 0 0
0 1 0
0 2 2
1 0 0
1 1 0
1 2 3
2 0 3
2 1 3
2 2 2
2 43 99 0 9
0 0 0
0 1 1
0 2 0
1 0 1
1 1 2
1 2 0
2 0 2
2 1 2
2 2 0
2 63 79 0 9
0 0 0
0 1 0
0 2 2
1 0 3
1 1 2
1 2 0
2 0 0
2 1 2
2 2 2
2 26 63 0 9
0 0 1
0 1 3
0 2 1
1 0 0
1 1 0
1 2 0
2 0 2
2 1 1
2 2 0
2 50 51 0 9
0 0 1
0 1 0
0 2 0
1 0 1
1 1 2
1 2 0
2 0 1
2 1 3
2 2 0
2 45 87 0 9
0 0 0
0 1 0
0 2 0
1 0 2
1 1 1
1 2 1
2 0 0
2 1 1
2 2 3
2 45 56 0 9
0 0 0
0 1 2
0 2 0
1 0 0
1 1 2
1 2 2
2 0 1
2 1 1
2 2 0
2 6 40 0 9
0 0 3
0 1 0
0 2 0
1 0 1
1 1 0
1 2 1
2 0 2
2 1 1
2 2 0
2 4 63 0 9
0 0 0
0 1 0
0 2 3
1 0 0
1 1 1
1 2 1
2 0 2
2 1 0
2 2 1
2 19 35 0 9
0 0 2
0 1 3
0 2 3
1 0 0
1 1 1
1 2 1
2 0 0
2 1 0
2 2 0
2 76 93 0 9
0 0 3
0 1 0
0 2 0
1 0 2
1 1 2
1 2 1
2 0 0
2 1 2
2 2 0
2 0 66 0 9
0 0 0
0 1 1
0 2 2
1 0 2
1 1 2
1 2 3
2 0 0
2 1 0
2 2 0
2 11 63 0 9
0 0 2
0 1 3
0 2 2
1 0 0
1 1 0
1 2 1
2 0 1
2 1 0
2 2 0
2 5 80 0 9
0 0 0
0 1 2
0 2 0
1 0 0
1 1 2
1 2 2
2 0 1
2 1 0
2 2 2
2 33 84 0 9
0 0 0
0 1 1
0 2 1
1 0 0
1 1 1
1 2 2
2 0 0
2 1 3
2 2 0
2 46 80 0 9
0 0 1
0 1 0
0 2 0
1 0 1
1 1 2
1 2 0
2 0 1
2 1 2
2 2 0
2 19 21 0 9
0 0 0
0 1 0
0 2 0
1 0 1
1 1 3
1 2 3
2 0 0
2 1 2
2 2 1
2 12 81 0 9
0 0 0
0 1 3
0 2 0
1 0 0
1 1 1
1 2 2
2 0 0
2 1 3
2 2 1
2 19 40 0 9
0 0 0
0 1 1
0 2 1
1 0 0
1 1 3
1 2 0
2 0 0
2 1 2
2 2 2
2 64 94 0 9
0 0 3
0 1 1
0 2 1
1 0 0
1 1 0
1 2 0
2 0 3
2 1 2
2 2 0
2 26 94 0 9
0 0 0
0 1 2
0 2 2
1 0 3
1 1 0
1 2 1
2 0 0
2 1 0
2 2 3
2 10 14 0 9
0 0 0
0 1 3
0 2 3
1 0 2
1 1 1
1 2 0
2 0 3
2 1 0
2 2 0
2 43 64 0 9
0 0 1
0 1 2
0 2 3
1 0 1
1 1 0
1 2 3
2 0 0
2 1 0
2 2 0
2 40 79 0 9
0 0 3
0 1 0
0 2 1
1 0 3
1 1 0
1 2 0
2 0 0
2 1 2
2 2 2
2 9 73 0 9
0 0 2
0 1 0
0 2 0
1 0 3
1 1 1
1 2 1
2 0 0
2 1 1
2 2 0
2 11 38 0 9
0 0 0
0 1 3
0 2 0
1 0 0
1 1 0
1 2 1
2 0 2
2 1 1
2 2 3
2 33 61 0 9
0 0 0
0 1 0
0 2 3
1 0 3
1 1 0
1 2 0
2 0 2
2 1 1
2 2 3
2 24 35 0 9
0 0 0
0 1 1
0 2 2
1 0 3
1 1 0
1 2 1
2 0 0
2 1 1
2 2 0
2 35 70 0 9
0 0 3
0 1 2
0 2 3
1 0 0
1 1 0
1 2 1
2 0 0
2 1 1
2 2 0
2 46 47 0 9
0 0 1
0 1 3
0 2 1
1 0 1
1 1 0
1 2 0
2 0 3
2 1 0
2 2 0
2 12 48 0 9
0 0 0
0 1 2
0 2 0
1 0 3
1 1 3
1 2 0
2 0 1
2 1 1
2 2 0
2 59 67 0 9
0 0 2
0 1 0
0 2 1
1 0 2
1 1 3
1 2 1
2 0 0
2 1 0
2 2 0
2 4 27 0 9
0 0 0
0 1 1
0 2 1
1 0 3
1 1 1
1 2 0
2 0 0
2 1 3
2 2 0
2 4 70 0 9
0 0 0
0 1 1
0 2 0
1 0 2
1 1 0
1 2 2
2 0 1
2 1 0
2 2 2
2 36 63 0 9
0 0 3
0 1 2
0 2 3
1 0 0
1 1 0
1 2 3
2 0 0
2 1 3
2 2 0
2 36 49 0 9
0 0 3
0 1 1
0 2 0
1 0 0
1 1 0
1 2 3
2 0 2
2 1 3
2 2 0
2 9 13 0 9
0 0 0
0 1 2
0 2 3
1 0 2
1 1 0
1 2 0
2 0 2
2 1 2
2 2 0
2 15 17 0 9
0 0 0
0 1 1
0 2 2
1 0 2
1 1 0
1 2 1
2 0 0
2 1 3
2 2 0
2 42 94 0 9
0 0 1
0 1 2
0 2 0
1 0 0
1 1 0
1 2 1
2 0 1
2 1 3
2 2 0
2 33 55 0 9
0 0 3
0 1 1
0 2 3
1 0 0
1 1 0
1 2 0
2 0 3
2 1 0
2 2 1
2 17 55 0 9
0 0 2
0 1 3
0 2 3
1 0 3
1 1 0
1 2 0
2 0 0
2 1 0
2 2 3
2 46 56 0 9
0 0 0
0 1 0
0 2 0
1 0 1
1 1 1
1 2 1
2 0 3
2 1 0
2 2 3
2 36 57 0 9
0 0 0
0 1 0
0 2 0
1 0 1
1 1 1
1 2 3
2 0 0
2 1 3
2 2 1
2 87 99 0 9
0 0 0
0 1 0
0 2 3
1 0 2
1 1 2
1 2 1
2 0 0
2 1 0
2 2 3
2 56 57 0 9
0 0 0
0 1 3
0 2 2
1 0 2
1 1 2
1 2 0
2 0 0
2 1 0
2 2 3
2 14 51 0 9
0 0 3
0 1 0
0 2 3
1 0 0
1 1 3
1 2 3
2 0 0
2 1 0
2 2 3
2 9 15 0 9
0 0 1
0 1 0
0 2 2
1 0 0
1 1 0
1 2 3
2 0 3
2 1 2
2 2 0
2 64 89 0 9
0 0 0
0 1 1
0 2 1
1 0 3
1 1 3
1 2 0
2 0 0
2 1 0
2 2 1
2 1 76 0 9
0 0 0
0 1 2
0 2 0
1 0 0
1 1 2
1 2 1
2 0 3
2 1 2
2 2 0
2 1 27 0 9
0 0 1
0 1 3
0 2 0
1 0 0
1 1 2
1 2 3
2 0 0
2 1 2
2 2 0
2 12 99 0 9
0 0 3
0 1 0
0 2 0
1 0 0
1 1 2
1 2 0
2 0 1
2 1 2
2 2 2
2 17 79 0 9
0 0 0
0 1 2
0 2 3
1 0 3
1 1 2
1 2 2
2 0 0
2 1 0
2 2 0
2 44 64 0 9
0 0 2
0 1 1
0 2 0
1 0 3
1 1 0
1 2 0
2 0 2
2 1 0
2 2 3
2 27 56 0 9
0 0 0
0 1 3
0 2 0
1 0 3
1 1 2
1 2 1
2 0 1
2 1 0
2 2 0
2 74 82 0 9
0 0 0
0 1 3
0 2 0
1 0 1
1 1 2
1 2 0
2 0 0
2 1 3
2 2 2
2 30 39 0 9
0 0 1
0 1 1
0 2 0
1 0 3
1 1 0
1 2 1
2 0 0
2 1 0
2 2 2
2 74 76 0 9
0 0 1
0 1 3
0 2 1
1 0 1
1 1 0
1 2 0
2 0 0
2 1 2
2 2 0
2 89 90 0 9
0 0 0
0 1 0
0 2 3
1 0 3
1 1 1
1 2 3
2 0 0
2 1 1
2 2 0
2 28 69 0 9
0 0 2
0 1 1
0 2 1
1 0 1
1 1 3
1 2 0
2 0 0
2 1 0
2 2 0
2 23 62 0 9
0 0 0
0 1 0
0 2 1
1 0 2
1 1 1
1 2 0
2 0 0
2 1 2
2 2 1
2 15 35 0 9
0 0 2
0 1 1
0 2 0
1 0 1
1 1 0
1 2 0
2 0 0
2 1 1
2 2 2
2 11 41 0 9
0 0 0
0 1 2
0 2 0
1 0 3
1 1 0
1 2 3
2 0 1
2 1 0
2 2 3
2 39 77 0 9
0 0 0
0 1 3
0 2 1
1 0 1
1 1 1
1 2 0
2 0 1
2 1 0
2 2 0
2 25 90 0 9
0 0 2
0 1 1
0 2 2
1 0 3
1 1 0
1 2 0
2 0 0
2 1 0
2 2 2
2 11 65 0 9
0 0 3
0 1 2
0 2 0
1 0 0
1 1 2
1 2 0
2 0 2
2 1 0
2 2 2
2 28 75 0 9
0 0 0
0 1 2
0 2 3
1 0 0
1 1 2
1 2 3
2 0 0
2 1 0
2 2 1
2 2 62 0 9
0 0 3
0 1 0
0 2 0
1 0 3
1 1 2
1 2 0
2 0 3
2 1 0
2 2 1
2 28 74 0 9
0 0 3
0 1 0
0 2 3
1 0 3
1 1 2
1 2 0
2 0 0
2 1 0
2 2 3
2 59 79 0 9
0 0 0
0 1 1
0 2 0
1 0 2
1 1 3
1 2 1
2 0 0
2 1 1
2 2 0
2 59 89 0 9
0 0 1
0 1 0
0 2 0
1 0 0
1 1 2
1 2 1
2 0 0
2 1 3
2 2 1
2 54 79 0 9
0 0 0
0 1 2
0 2 3
1 0 0
1 1 2
1 2 0
2 0 0
2 1 1
2 2 1
2 50 54 0 9
0 0 1
0 1 3
0 2 0
1 0 0
1 1 3
1 2 0
2 0 3
2 1 3
2 2 0
2 16 87 0 9
0 0 1
0 1 1
0 2 0
1 0 2
1 1 0
1 2 0
2 0 0
2 1 1
2 2 3
2 47 86 0 9
0 0 3
0 1 2
0 2 0
1 0 2
1 1 0
1 2 3
2 0 0
2 1 0
2 2 1
2 84 96 0 9
0 0 0
0 1 3
0 2 3
1 0 2
1 1 3
1 2 0
2 0 1
2 1 0
2 2 0
2 48 77 0 9
0 0 2
0 1 0
0 2 0
1 0 3
1 1 2
1 2 2
2 0 3
2 1 0
2 2 0
2 14 24 0 9
0 0 3
0 1 0
0 2 0
1 0 1
1 1 2
1 2 0
2 0 0
2 1 1
2 2 1
2 23 70 0 9
0 0 0
0 1 2
0 2 3
1 0 0
1 1 3
1 2 0
2 0 2
2 1 0
2 2 3
2 74 91 0 9
0 0 1
0 1 3
0 2 3
1 0 0
1 1 0
1 2 0
2 0 3
2 1 0
2 2 2
2 46 82 0 9
0 0 0
0 1 1
0 2 0
1 0 3
1 1 1
1 2 0
2 0 1
2 1 2
2 2 0
2 33 59 0 9
0 0 2
0 1 0
0 2 0
1 0 3
1 1 0
1 2 0
2 0 3
2 1 3
2 2 2
2 1 58 0 9
0 0 1
0 1 0
0 2 3
1 0 2
1 1 2
1 2 0
2 0 2
2 1 0
2 2 0
2 50 88 0 9
0 0 0
0 1 1
0 2 3
1 0 0
1 1 2
1 2 1
2 0 0
2 1 2
2 2 0
2 75 90 0 9
0 0 0
0 1 3
0 2 3
1 0 0
1 1 0
1 2 2
2 0 1
2 1 0
2 2 1
2 9 17 0 9
0 0 0
0 1 0
0 2 3
1 0 0
1 1 1
1 2 3
2 0 3
2 1 3
2 2 0
2 15 46 0 9
0 0 1
0 1 0
0 2 0
1 0 1
1 1 3
1 2 0
2 0 2
2 1 2
2 2 0
2 10 40 0 9
0 0 3
0 1 0
0 2 0
1 0 0
1 1 2
1 2 3
2 0 3
2 1 2
2 2 0
2 57 87 0 9
0 0 3
0 1 0
0 2 2
1 0 0
1 1 3
1 2 0
2 0 2
2 1 0
2 2 1
2 11 86 0 9
0 0 2
0 1 0
0 2 3
1 0 0
1 1 1
1 2 0
2 0 2
2 1 2
2 2 0
2 29 70 0 9
0 0 0
0 1 0
0 2 3
1 0 0
1 1 1
1 2 1
2 0 1
2 1 2
2 2 0
2 31 35 0 9
0 0 0
0 1 2
0 2 2
1 0 3
1 1 2
1 2 0
2 0 0
2 1 0
2 2 2
2 79 88 0 9
0 0 1
0 1 0
0 2 2
1 0 2
1 1 0
1 2 3
2 0 0
2 1 3
2 2 0
2 23 92 0 9
0 0 1
0 1 0
0 2 3
1 0 0
1 1 0
1 2 1
2 0 1
2 1 3
2 2 0
2 27 49 0 9
0 0 1
0 1 0
0 2 0
1 0 2
1 1 0
1 2 0
2 0 3
2 1 1
2 2 3
2 46 66 0 9
0 0 3
0 1 0
0 2 0
1 0 1
1 1 1
1 2 0
2 0 1
2 1 3
2 2 0
2 35 46 0 9
0 0 0
0 1 0
0 2 2
1 0 0
1 1 2
1 2 1
2 0 1
2 1 0
2 2 1
2 24 58 0 9
0 0 0
0 1 2
0 2 0
1 0 0
1 1 1
1 2 1
2 0 3
2 1 0
2 2 3
2 78 97 0 9
0 0 2
0 1 1
0 2 1
1 0 2
1 1 0
1 2 2
2 0 0
2 1 0
2 2 0
2 73 97 0 9
0 0 0
0 1 0
0 2 3
1 0 2
1 1 3
1 2 2
2 0 1
2 1 0
2 2 0
1 0 512409557603043100 3
0 1
1 0
2 1
1 1 512409557603043100 3
0 0
1 1
2 0
1 2 512409557603043100 3
0 0
1 3
2 2
1 3 512409557603043100 3
0 3
1 1
2 0
1 4 512409557603043100 3
0 0
1 2
2 2
1 5 512409557603043100 3
0 0
1 1
2 1
1 6 512409557603043100 3
0 0
1 0
2 0
1 7 512409557603043100 3
0 0
1 1
2 0
1 8 512409557603043100 3
0 3
1 0
2 2
1 9 512409557603043100 3
0 0
1 1
2 1
1 10 512409557603043100 3
0 2
1 1
2 0
1 11 512409557603043100 3
0 1
1 0
2 1
1 12 512409557603043100 3
0 0
1 0
2 1
1 13 512409557603043100 3
0 1
1 1
2 0
1 14 512409557603043100 3
0 0
1 1
2 1
1 15 512409557603043100 3
0 2
1 3
2 0
1 16 512409557603043100 3
0 3
1 2
2 0
1 17 512409557603043100 3
0 1
1 0
2 0
1 18 512409557603043100 3
0 0
1 0
2 0
1 19 512409557603043100 3
0 2
1 0
2 2
1 20 512409557603043100 3
0 0
1 0
2 2
1 21 512409557603043100 3
0 3
1 0
2 2
1 22 512409557603043100 3
0 2
1 0
2 3
1 23 512409557603043100 3
0 1
1 0
2 2
1 24 512409557603043100 3
0 0
1 2
2 3
1 25 512409557603043100 3
0 1
1 0
2 2
1 26 512409557603043100 3
0 2
1 2
2 0
1 27 512409557603043100 3
0 0
1 0
2 0
1 28 512409557603043100 3
0 1
1 0
2 3
1 29 512409557603043100 3
0 2
1 2
2 0
1 30 512409557603043100 3
0 1
1 0
2 2
1 31 512409557603043100 3
0 3
1 0
2 2
1 32 512409557603043100 3
0 1
1 0
2 1
1 33 512409557603043100 3
0 0
1 0
2 1
1 34 512409557603043100 3
0 2
1 0
2 2
1 35 512409557603043100 3
0 0
1 3
2 0
1 36 512409557603043100 3
0 1
1 0
2 1
1 37 512409557603043100 3
0 3
1 0
2 1
1 38 512409557603043100 3
0 0
1 3
2 0
1 39 512409557603043100 3
0 0
1 1
2 2
1 40 512409557603043100 3
0 0
1 0
2 0
1 41 512409557603043100 3
0 2
1 2
2 0
1 42 512409557603043100 3
0 2
1 0
2 3
1 43 512409557603043100 3
0 0
1 1
2 3
1 44 512409557603043100 3
0 1
1 0
2 1
1 45 512409557603043100 3
0 2
1 2
2 0
1 46 512409557603043100 3
0 3
1 2
2 0
1 47 512409557603043100 3
0 2
1 0
2 0
1 48 512409557603043100 3
0 0
1 2
2 2
1 49 512409557603043100 3
0 0
1 3
2 0
1 50 512409557603043100 3
0 2
1 1
2 0
1 51 512409557603043100 3
0 0
1 2
2 1
1 52 512409557603043100 3
0 1
1 0
2 0
1 53 512409557603043100 3
0 1
1 0
2 3
1 54 512409557603043100 3
0 0
1 2
2 2
1 55 512409557603043100 3
0 0
1 2
2 2
1 56 512409557603043100 3
0 1
1 0
2 3
1 57 512409557603043100 3
0 0
1 3
2 0
1 58 512409557603043100 3
0 0
1 1
2 1
1 59 512409557603043100 3
0 0
1 2
2 2
1 60 512409557603043100 3
0 0
1 1
2 0
1 61 512409557603043100 3
0 1
1 0
2 3
1 62 512409557603043100 3
0 1
1 1
2 0
1 63 512409557603043100 3
0 0
1 0
2 0
1 64 512409557603043100 3
0 2
1 1
2 0
1 65 512409557603043100 3
0 0
1 0
2 2
1 66 512409557603043100 3
0 2
1 0
2 1
1 67 512409557603043100 3
0 2
1 0
2 2
1 68 512409557603043100 3
0 0
1 2
2 0
1 69 512409557603043100 3
0 0
1 0
2 2
1 70 512409557603043100 3
0 3
1 0
2 3
1 71 512409557603043100 3
0 1
1 1
2 0
1 72 512409557603043100 3
0 0
1 0
2 0
1 73 512409557603043100 3
0 3
1 3
2 0
1 74 512409557603043100 3
0 0
1 2
2 1
1 75 512409557603043100 3
0 0
1 2
2 0
1 76 512409557603043100 3
0 0
1 0
2 0
1 77 512409557603043100 3
0 1
1 0
2 1
1 78 512409557603043100 3
0 1
1 0
2 2
1 79 512409557603043100 3
0 0
1 0
2 0
1 80 512409557603043100 3
0 0
1 2
2 1
1 81 512409557603043100 3
0 0
1 0
2 0
1 82 512409557603043100 3
0 0
1 0
2 1
1 83 512409557603043100 3
0 0
1 0
2 0
1 84 512409557603043100 3
0 0
1 2
2 2
1 85 512409557603043100 3
0 0
1 0
2 1
1 86 512409557603043100 3
0 3
1 1
2 0
1 87 512409557603043100 3
0 0
1 2
2 2
1 88 512409557603043100 3
0 0
1 1
2 3
1 89 512409557603043100 3
0 1
1 0
2 1
1 90 512409557603043100 3
0 1
1 0
2 2
1 91 512409557603043100 3
0 0
1 0
2 0
1 92 512409557603043100 3
0 1
1 1
2 0
1 93 512409557603043100 3
0 0
1 2
2 2
1 94 512409557603043100 3
0 0
1 0
2 1
1 95 512409557603043100 3
0 2
1 2
2 0
1 96 512409557603043100 3
0 1
1 0
2 3
1 97 512409557603043100 3
0 0
1 2
2 2
1 98 512409557603043100 3
0 3
1 2
2 0
1 99 512409557603043100 3
0 0
1 0
2 1
0 60 0
